c clasp version 2.1.1
c Reading from p68.cnf
c Solving...
s SATISFIABLE

c Models        : 1+    
c Time          : 2.435s (Solving: 1.54s 1st Model: 1.54s Unsat: 0.00s)
c CPU Time      : 2.420s
c Choices       : 97703
c Conflicts     : 4875
c Restarts      : 16     (Average: 304.69 Last: 334)

c Variables     : 233400 (Eliminated: 73589 Frozen:    0)
c Constraints   : 260684 (Binary: 65.4% Ternary: 34.0% Other:  0.6%)
c Lemmas        : 4875   (Binary:  0.6% Ternary:  0.6% Other: 98.8%)
c   Conflict    : 4875   (Average Length: 40.9) 
c   Loop        : 0      (Average Length: 0.0) 
c   Other       : 0      (Average Length: 0.0)
c   Deleted     : 0     
